\ Model Mix
\ LP format - for model browsing. Use MPS format to capture full model detail.
Minimize
  C17 + [ - 2 C18 * C19 ] / 2 
Subject To
 R0: C0 <= 4.280570507049561
 R1: - C0 <= 1.719429492950439
 R2: C1 <= 5.705169677734375
 R3: - C1 <= 0.294830322265625
 R4: C2 <= 15000
 R5: C2 >= 0
 R6: C3 <= 15000
 R7: C3 >= 0
 R8: C4 <= 15000
 R9: C4 >= 0
 R10: C5 <= 15000
 R11: C5 >= 0
 R12: C6 <= 15000
 R13: C6 >= 0
 R14: C7 <= 15000
 R15: C7 >= 0
 R16: C8 <= 15000
 R17: C8 >= 0
 R18: C9 <= 15000
 R19: C9 >= 0
 R20: C10 <= 15000
 R21: C10 >= 0
 R22: C11 <= 15000
 R23: C11 >= 0
 R24: C12 <= 15000
 R25: C12 >= 0
 R26: C13 <= 15000
 R27: C13 >= 0
 R28: C14 <= 15000
 R29: C14 >= 0
 R30: C15 <= 15000
 R31: C15 >= 0
 R32: C16 <= 15000
 R33: C16 >= 0
 R34: - 0.52 C0 + 0.12 C1 - C2 <= -0.14
 R35: - 0.27 C0 - 0.6 C1 - C3 <= -0.66
 R36: 0.76 C0 - 0.59 C1 - C4 <= -0.37
 R37: 0.32 C0 - 0.62 C1 - C5 <= -1.35
 R38: 0.02 C0 - 0.55 C1 - C6 <= 0.45
 R39: - 0.22 C2 + 0.04 C3 + 0.17 C4 + 0.33 C5 + 0.13 C6 - C7 <= -0.12
 R40: - 0.31 C3 + 0.05 C4 - 0.08 C5 + 0.26 C6 - C8 <= 0.29
 R41: 0.2 C2 - 0.25 C3 + 0.07 C4 + 0.14 C5 + 0.17 C6 - C9 <= 0.26
 R42: 0.17 C3 - 0.35 C4 - 0.43 C5 - 0.22 C6 - C10 <= 0.17
 R43: - 0.1 C2 + 0.13 C3 - 1.78 C4 - 0.45 C5 - 0.19 C6 - C11 <= 0.12
 R44: - 0.05 C2 - 0.13 C3 - 0.08 C4 - 0.22 C5 + 0.31 C6 - C12 <= -0.03
 R45: 0.1 C2 + 0.29 C3 - 0.13 C4 - 0.12 C5 - 0.18 C6 - C13 <= -0.22
 R46: - 0.3 C2 + 0.06 C3 - 0.19 C4 - 0.22 C5 + 0.12 C6 - C14 <= -0.15
 R47: 0.03 C2 + 0.09 C3 + 0.16 C4 - 0.38 C5 - 0.24 C6 - C15 <= 0.11
 R48: 0.27 C2 + 0.02 C3 - 2.69 C4 + 0.22 C5 - 0.01 C6 - C16 <= -0.34
 R49: 0.2 C7 - 0.56 C8 - 0.05 C9 + 0.09 C10 - 1.95 C11 - 0.07 C12
   - 0.44 C13 - 0.74 C14 + 0.06 C15 - 4.65 C16 + C17 = 0.06
 R50: - 0.13 C7 + 0.5 C8 + 0.07 C9 - 0.09 C10 + 2.33 C11 + 0.01 C12
   + 0.41 C13 + 0.41 C14 - 0.12 C15 + 4.58 C16 + C18 = -0.1
 R51: C19 = 1
 qc0: - 0.14 C2 + [ 0.52 C0 * C2 - 0.12 C1 * C2 + C2 ^2 ] = 0
 qc1: - 0.66 C3 + [ 0.27 C0 * C3 + 0.6 C1 * C3 + C3 ^2 ] = 0
 qc2: - 0.37 C4 + [ - 0.76 C0 * C4 + 0.59 C1 * C4 + C4 ^2 ] = 0
 qc3: - 1.35 C5 + [ - 0.32 C0 * C5 + 0.62 C1 * C5 + C5 ^2 ] = 0
 qc4: 0.45 C6 + [ - 0.02 C0 * C6 + 0.55 C1 * C6 + C6 ^2 ] = 0
 qc5: - 0.12 C7 + [ 0.22 C2 * C7 - 0.04 C3 * C7 - 0.17 C4 * C7
   - 0.33 C5 * C7 - 0.13 C6 * C7 + C7 ^2 ] = 0
 qc6: 0.29 C8 + [ 0.31 C3 * C8 - 0.05 C4 * C8 + 0.08 C5 * C8 - 0.26 C6 * C8
   + C8 ^2 ] = 0
 qc7: 0.26 C9 + [ - 0.2 C2 * C9 + 0.25 C3 * C9 - 0.07 C4 * C9
   - 0.14 C5 * C9 - 0.17 C6 * C9 + C9 ^2 ] = 0
 qc8: 0.17 C10 + [ - 0.17 C3 * C10 + 0.35 C4 * C10 + 0.43 C5 * C10
   + 0.22 C6 * C10 + C10 ^2 ] = 0
 qc9: 0.12 C11 + [ 0.1 C2 * C11 - 0.13 C3 * C11 + 1.78 C4 * C11
   + 0.45 C5 * C11 + 0.19 C6 * C11 + C11 ^2 ] = 0
 qc10: - 0.03 C12 + [ 0.05 C2 * C12 + 0.13 C3 * C12 + 0.08 C4 * C12
   + 0.22 C5 * C12 - 0.31 C6 * C12 + C12 ^2 ] = 0
 qc11: - 0.22 C13 + [ - 0.1 C2 * C13 - 0.29 C3 * C13 + 0.13 C4 * C13
   + 0.12 C5 * C13 + 0.18 C6 * C13 + C13 ^2 ] = 0
 qc12: - 0.15 C14 + [ 0.3 C2 * C14 - 0.06 C3 * C14 + 0.19 C4 * C14
   + 0.22 C5 * C14 - 0.12 C6 * C14 + C14 ^2 ] = 0
 qc13: 0.11 C15 + [ - 0.03 C2 * C15 - 0.09 C3 * C15 - 0.16 C4 * C15
   + 0.38 C5 * C15 + 0.24 C6 * C15 + C15 ^2 ] = 0
 qc14: - 0.34 C16 + [ - 0.27 C2 * C16 - 0.02 C3 * C16 + 2.69 C4 * C16
   - 0.22 C5 * C16 + 0.01 C6 * C16 + C16 ^2 ] = 0
Bounds
 C19 <= 1
End
